Version identifier: 22.1.0.0 | 2022-03-09 | 1a383f8ce
CPXPARAM_Read_DataCheck                          1
1 of 1 MIP starts provided solutions.
MIP start 'm1' defined initial solution with objective 21.0000.
Tried aggregator 3 times.
MIP Presolve eliminated 3876 rows and 943 columns.
MIP Presolve modified 108 coefficients.
Aggregator did 3107 substitutions.
Reduced MIP has 931 rows, 3258 columns, and 7433 nonzeros.
Reduced MIP has 3246 binaries, 12 generals, 0 SOSs, and 0 indicators.
Presolve time = 0.02 sec. (23.28 ticks)
Probing fixed 24 vars, tightened 0 bounds.
Probing time = 0.01 sec. (4.62 ticks)
Tried aggregator 2 times.
Detecting symmetries...
MIP Presolve eliminated 30 rows and 40 columns.
Aggregator did 10 substitutions.
Reduced MIP has 891 rows, 3208 columns, and 7323 nonzeros.
Reduced MIP has 3196 binaries, 12 generals, 0 SOSs, and 0 indicators.
Presolve time = 0.01 sec. (9.42 ticks)
Probing time = 0.00 sec. (2.74 ticks)
Clique table members: 7078.
MIP emphasis: balance optimality and feasibility.
MIP search method: dynamic search.
Parallel mode: deterministic, using up to 8 threads.
Root relaxation solution time = 0.03 sec. (15.07 ticks)

        Nodes                                         Cuts/
   Node  Left     Objective  IInf  Best Integer    Best Bound    ItCnt     Gap

*     0+    0                           21.0000        0.0000           100.00%
      0     0       12.4357   658       21.0000       12.4357      767   40.78%
      0     0       20.0000   433       21.0000      Cuts: 85     1804    4.76%
      0     0        cutoff             21.0000                   4283    0.00%
Elapsed time = 0.96 sec. (531.75 ticks, tree = 0.01 MB, solutions = 1)

Clique cuts applied:  1
Zero-half cuts applied:  42
Lift and project cuts applied:  1
Gomory fractional cuts applied:  15

Root node processing (before b&c):
  Real time             =    0.96 sec. (532.01 ticks)
Parallel b&c, 8 threads:
  Real time             =    0.00 sec. (0.00 ticks)
  Sync time (average)   =    0.00 sec.
  Wait time (average)   =    0.00 sec.
                          ------------
Total (root+branch&cut) =    0.96 sec. (532.01 ticks)
